Instance name:    bar-n100-6
Authors:          PDPTW Solver
Date:             2025-11-20
Reference:        LNS with SA/RTR
Solution
Route 1 : 31 32 82 81 25 38 40 90 88 16 66 8 18 75 68 7 57 9 19 59 21 71 58 27 77 69 36 33 83 86 46 96
Route 2 : 37 87 34 48 30 98 84 28 42 24 92 44 80 94 74 13 26 63 76 78 3 49 99 14 64 53 15 65
Route 3 : 22 72 12 43 93 62 1 51 4 54 23 73 5 17 2 67 11 45 95 35 55 85 10 52 61 50 60 39 89 100
Route 4 : 29 20 70 79 41 91 6 47 97 56
